; benchmark generated from python API
(set-info :status unknown)
(declare-datatypes ((RealState 0)) (((RMk1 (rval1 Real)) (RMk2 (rval2 Real)))))
 (assert
 (forall ((|v11:0| Real) )(forall ((|v10:1| Real) )(forall ((|v9:2| Real) )(forall ((|v8:3| Real) )(exists ((|v7:4_st| RealState) (val!3560 Real) )(exists ((|v6:5_st| RealState) (val!3561 Real) )(exists ((|v5:6_st| RealState) (val!3562 Real) )(exists ((|v4:7_st| RealState) (val!3563 Real) )(forall ((|v3:8| Real) )(forall ((|v2:9| Real) )(forall ((|v1:10| Real) )(forall ((|v0:11| Real) )(let ((?x2444 (* 14.0 |v8:3|)))
 (let ((?x1909 (+ (+ (+ (* (- 16.0) |v9:2|) (* (- 11.0) |v9:2|)) (* 13.0 |v0:11|)) ?x2444)))
 (let ((?x1151 (- 10.0)))
 (let ((?x3135 (* 18.0 |v1:10|)))
 (let ((?x638 (rval2 |v4:7_st|)))
 (let ((?x711 (* 5.0 ?x638)))
 (let (($x1848 (<= (+ (+ (+ (* 8.0 (rval2 |v7:4_st|)) (* (- 11.0) |v11:0|)) ?x711) ?x3135) ?x1151)))
 (let ((?x1085 (- 11.0)))
 (let ((?x1837 (* 12.0 |v1:10|)))
 (let ((?x2154 (+ (+ (+ (* (- 9.0) |v2:9|) (* 18.0 |v2:9|)) (* 18.0 |v2:9|)) ?x1837)))
 (let (($x2540 (<= ?x2154 ?x1085)))
 (let ((?x771 (- 2.0)))
 (let ((?x446 (+ (+ (+ (* (- 1.0) |v3:8|) (* (- 8.0) |v3:8|)) (* 17.0 |v8:3|)) (* 11.0 |v8:3|))))
 (let ((?x978 (- 19.0)))
 (let ((?x2219 (* 17.0 |v2:9|)))
 (let (($x1030 (<= (+ (+ (+ (* ?x1151 |v11:0|) (* 5.0 |v9:2|)) (* (- 7.0) |v2:9|)) ?x2219) ?x978)))
 (let ((?x634 (* 11.0 |v2:9|)))
 (let ((?x1145 (+ (+ (+ (* 20.0 |v8:3|) (* (- 15.0) |v8:3|)) (* 0.0 |v11:0|)) ?x634)))
 (let ((?x2581 (* ?x1085 |v3:8|)))
 (let ((?x1694 (+ (+ (* (- 12.0) |v11:0|) (* (- 13.0) (rval2 |v6:5_st|))) (* (- 18.0) |v9:2|))))
 (let (($x2647 (and (and (<= (+ ?x1694 ?x2581) 8.0) (or (<= ?x1145 12.0) $x1030)) (or (and (<= ?x446 ?x771) $x2540) (and $x1848 (<= ?x1909 18.0))))))
 (let ((?x1464 (+ (+ (+ (* 12.0 |v10:1|) |v0:11|) (* 4.0 (rval2 |v7:4_st|))) (* 13.0 |v10:1|))))
 (let ((?x2328 (* 4.0 |v10:1|)))
 (let ((?x78 (+ (+ (+ (* 0.0 |v8:3|) (* 20.0 (rval2 |v7:4_st|))) (* (- 9.0) |v8:3|)) ?x2328)))
 (let ((?x2780 (- 20.0)))
 (let ((?x2171 (* ?x2780 |v10:1|)))
 (let ((?x1838 (* 3.0 |v2:9|)))
 (let ((?x1872 (+ ?x1838 (* (- 4.0) |v2:9|))))
 (let ((?x1032 (rval2 |v5:6_st|)))
 (let ((?x901 (* 10.0 ?x1032)))
 (let ((?x1175 (+ (+ (+ (* 14.0 |v3:8|) (* 11.0 |v3:8|)) (* (- 8.0) ?x1032)) ?x901)))
 (let (($x152 (or (<= ?x1175 1.0) (<= (+ (+ ?x1872 (* (- 4.0) (rval2 |v6:5_st|))) ?x2171) 7.0))))
 (let ((?x1913 (* 9.0 |v3:8|)))
 (let (($x1868 (<= (+ (+ (+ (* ?x771 |v1:10|) (* (- 12.0) |v10:1|)) (* 12.0 |v9:2|)) ?x1913) 11.0)))
 (let ((?x489 (- 12.0)))
 (let ((?x3167 (- 16.0)))
 (let ((?x424 (* ?x3167 |v2:9|)))
 (let ((?x1209 (+ (+ (+ (* (- 14.0) |v3:8|) (* 7.0 (rval2 |v6:5_st|))) ?x424) (* ?x2780 |v9:2|))))
 (let ((?x2100 (* ?x489 |v1:10|)))
 (let ((?x768 (+ (+ (+ (* 15.0 (rval2 |v6:5_st|)) (* 8.0 |v8:3|)) (* 0.0 |v1:10|)) ?x2100)))
 (let ((?x1313 (+ (+ (+ (* (- 7.0) |v9:2|) (* 12.0 |v8:3|)) (* ?x489 |v11:0|)) (* (- 15.0) ?x1032))))
 (let (($x829 (and (and (<= ?x1313 11.0) (<= ?x768 14.0)) (or (<= ?x1209 ?x489) $x1868))))
 (let (($x1485 (or (or $x829 (or $x152 (and (<= ?x78 12.0) (<= ?x1464 7.0)))) $x2647)))
 (let ((?x1881 (+ (+ (+ (* (- 7.0) |v9:2|) (* ?x771 (rval2 |v6:5_st|))) (* 11.0 ?x1032)) (* (- 5.0) ?x638))))
 (let ((?x522 (- 3.0)))
 (let ((?x2984 (* ?x522 |v2:9|)))
 (let ((?x2136 (* 18.0 |v0:11|)))
 (let ((?x1863 (+ (+ (+ (* (- 13.0) |v9:2|) (* (- 1.0) (rval2 |v6:5_st|))) ?x2136) ?x2984)))
 (let ((?x973 (* 0.0 |v1:10|)))
 (let ((?x2613 (* 13.0 |v3:8|)))
 (let (($x965 (<= (+ (+ (+ (* 10.0 (rval2 |v7:4_st|)) (* ?x1085 (rval2 |v6:5_st|))) ?x2613) ?x973) 3.0)))
 (let ((?x3009 (* 10.0 |v0:11|)))
 (let ((?x942 (+ (+ (+ (* (- 9.0) |v10:1|) (* 6.0 |v9:2|)) (* 4.0 (rval2 |v7:4_st|))) ?x3009)))
 (let (($x368 (or (and (<= ?x942 ?x771) $x965) (and (<= ?x1863 ?x489) (<= ?x1881 16.0)))))
 (let ((?x1081 (+ (+ (+ (* 2.0 ?x1032) (* ?x978 (rval2 |v6:5_st|))) (* ?x978 |v0:11|)) (* (- 18.0) ?x1032))))
 (let ((?x146 (- 13.0)))
 (let ((?x2656 (* 20.0 |v11:0|)))
 (let (($x1847 (<= (+ (+ (+ (* 16.0 |v0:11|) (* 8.0 |v10:1|)) (* ?x146 |v1:10|)) ?x2656) ?x146)))
 (let ((?x2429 (rval2 |v7:4_st|)))
 (let ((?x309 (* 8.0 ?x2429)))
 (let (($x2911 (<= (+ (+ (+ (* 2.0 |v2:9|) (* 15.0 ?x2429)) (* 7.0 ?x2429)) ?x309) 10.0)))
 (let ((?x924 (- 9.0)))
 (let ((?x285 (* 15.0 ?x638)))
 (let ((?x2159 (+ (+ (+ (* 16.0 |v10:1|) (* 11.0 |v1:10|)) (* ?x924 (rval2 |v6:5_st|))) ?x285)))
 (let (($x1240 (and (and (and (<= ?x2159 ?x924) $x2911) (and $x1847 (<= ?x1081 12.0))) $x368)))
 (let (($x2933 (<= (+ (+ (+ (* ?x771 |v10:1|) ?x973) (* (- 6.0) |v3:8|)) (* 12.0 |v2:9|)) 15.0)))
 (let ((?x1985 (+ (+ (+ (* (- 8.0) |v9:2|) (* 2.0 |v2:9|)) (* 2.0 |v2:9|)) (* (- 17.0) (rval2 |v6:5_st|)))))
 (let ((?x251 (+ (+ (+ |v9:2| (* 15.0 ?x2429)) (* 18.0 ?x2429)) (* (- 14.0) |v10:1|))))
 (let ((?x2387 (+ (+ (+ (* 6.0 |v2:9|) (* ?x2780 ?x2429)) (* 16.0 ?x638)) (* (- 7.0) ?x638))))
 (let (($x266 (and (or (<= ?x2387 9.0) (<= ?x251 20.0)) (or (<= ?x1985 3.0) $x2933))))
 (let ((?x459 (* 0.0 |v3:8|)))
 (let ((?x939 (+ (+ (* (- 5.0) |v10:1|) (* ?x522 (rval2 |v6:5_st|))) (* (- 5.0) ?x2429))))
 (let ((?x1142 (rval2 |v6:5_st|)))
 (let ((?x1592 (* 6.0 ?x1142)))
 (let (($x2896 (<= (+ (+ (+ (* 2.0 ?x1032) (* 19.0 ?x1142)) (* 17.0 |v0:11|)) ?x1592) 18.0)))
 (let ((?x25 (+ (+ (+ ?x3009 (* 15.0 ?x1142)) (* 3.0 ?x638)) (* (- 8.0) ?x2429))))
 (let (($x2034 (or (and (and (or (<= ?x25 ?x771) $x2896) (<= (+ ?x939 ?x459) ?x3167)) $x266) $x1240)))
 (let (($x1986 (<= (+ (+ (+ ?x2444 (* ?x3167 ?x638)) (* ?x3167 |v11:0|)) (* (- 7.0) |v1:10|)) 4.0)))
 (let ((?x867 (* 7.0 |v1:10|)))
 (let (($x1194 (<= (+ (+ (+ (* 6.0 |v1:10|) (* 5.0 |v2:9|)) (* 6.0 |v2:9|)) ?x867) 16.0)))
 (let ((?x730 (+ (+ (+ (* 0.0 ?x1142) (* 3.0 |v0:11|)) (* ?x1151 ?x1032)) (* (- 14.0) |v11:0|))))
 (let ((?x1841 (- 4.0)))
 (let ((?x2762 (+ (+ (+ (* 17.0 ?x2429) (* (- 5.0) |v8:3|)) (* (- 6.0) ?x1142)) (* 13.0 ?x2429))))
 (let ((?x2560 (- 14.0)))
 (let ((?x1110 (* ?x489 |v10:1|)))
 (let (($x1828 (<= (+ (+ (+ (* (- 6.0) ?x1032) (* ?x2780 ?x1142)) (* ?x1085 |v2:9|)) ?x1110) ?x2560)))
 (let (($x2341 (<= (+ (+ (+ (* 18.0 |v9:2|) ?x973) (* 5.0 |v10:1|)) (* 7.0 ?x2429)) 4.0)))
 (let ((?x2402 (* 5.0 ?x2429)))
 (let (($x2638 (<= (+ (+ (+ (* 5.0 |v2:9|) (* ?x146 |v9:2|)) (* ?x522 ?x2429)) ?x2402) 2.0)))
 (let ((?x2932 (- 7.0)))
 (let (($x433 (<= (+ (+ (+ ?x2171 |v0:11|) (* 12.0 |v10:1|)) (* (- 1.0) |v11:0|)) ?x2932)))
 (let (($x2214 (or (or (and $x433 $x2638) (or $x2341 $x1828)) (and (and (<= ?x2762 ?x1841) (<= ?x730 12.0)) (or $x1194 $x1986)))))
 (let (($x1577 (<= (+ (+ (+ (* (- 1.0) |v11:0|) (* 8.0 ?x638)) |v3:8|) (* ?x2560 |v1:10|)) ?x3167)))
 (let ((?x1836 (* 15.0 |v1:10|)))
 (let (($x2592 (<= (+ (+ (+ (* 16.0 |v10:1|) (* (- 17.0) ?x1032)) (* ?x146 |v2:9|)) ?x1836) 6.0)))
 (let ((?x2479 (+ (+ (+ (* 2.0 ?x1142) (* ?x2560 |v8:3|)) (* ?x771 |v2:9|)) (* (- 6.0) |v9:2|))))
 (let ((?x636 (- 8.0)))
 (let ((?x981 (+ (+ (+ (* 18.0 ?x1032) (* 0.0 |v0:11|)) (* ?x978 |v11:0|)) (* 11.0 |v11:0|))))
 (let ((?x798 (- 6.0)))
 (let (($x603 (<= (+ (+ (+ ?x973 (* ?x924 |v0:11|)) (* 6.0 |v11:0|)) (* 20.0 ?x638)) ?x798)))
 (let (($x144 (or (<= (+ (+ (+ (* ?x1085 |v0:11|) ?x3009) (* ?x1085 |v10:1|)) ?x309) 4.0) $x603)))
 (let ((?x2870 (+ (+ (+ (* ?x1085 ?x638) (* 2.0 |v10:1|)) (* 4.0 ?x2429)) (* ?x146 |v10:1|))))
 (let (($x579 (and (<= (+ (+ (+ (* 11.0 ?x1142) (* 13.0 ?x1142)) ?x2613) ?x2984) 8.0) (<= ?x2870 ?x2780))))
 (let (($x1757 (or (and $x579 $x144) (or (and (<= ?x981 ?x636) (<= ?x2479 ?x1151)) (or $x2592 $x1577)))))
 (let (($x2588 (or (<= (+ (+ (+ |v2:9| (* 17.0 ?x1142)) ?x2219) (* 13.0 |v11:0|)) 3.0) (and $x1757 $x2214))))
 (let (($x3027 (not (= |v4:7_st| (RMk1 val!3563)))))
 (let (($x820 (not (= |v5:6_st| (RMk1 val!3562)))))
 (let (($x1286 (not (= |v6:5_st| (RMk1 val!3561)))))
 (let (($x2483 (not (= |v7:4_st| (RMk1 val!3560)))))
 (and $x2483 $x1286 $x820 $x3027 (or $x2588 (and $x2034 $x1485)))))))))))))))))))))))))))))))))))))))))))))))))))))))))))))))))))))))))))))))))))))))))))))))))))))))))))))))))
 )
 )
 )
 )
 )
 )
 )
 )
 )
 )
 )
 )
(check-sat)
